Nodes = {"Frankfurt", "Koeln", "Hamburg", "Hannover", "Karlsruhe", "Stuttgart", "Muenchen", "Nuernberg", "Berlin", "Leipzig"};
Arcs = {<"Frankfurt","Koeln",1,4,1>, <"Frankfurt","Hamburg",1,13,1>, <"Frankfurt","Hannover",1,6,1>, <"Frankfurt","Karlsruhe",1,1,1>, <"Frankfurt","Stuttgart",1,3,1>, <"Frankfurt","Muenchen",1,13,1>, <"Frankfurt","Nuernberg",1,8,1>, <"Frankfurt","Berlin",1,28,1>, <"Frankfurt","Leipzig",1,16,1>, <"Koeln","Frankfurt",1,4,1>, <"Koeln","Hamburg",1,20,1>, <"Koeln","Hannover",1,11,1>, <"Koeln","Karlsruhe",1,5,1>, <"Koeln","Stuttgart",1,11,1>, <"Koeln","Muenchen",1,29,1>, <"Koeln","Nuernberg",1,22,1>, <"Koeln","Berlin",1,47,1>, <"Koeln","Leipzig",1,32,1>, <"Hamburg","Frankfurt",1,13,1>, <"Hamburg","Koeln",1,20,1>, <"Hamburg","Hannover",1,2,1>, <"Hamburg","Karlsruhe",1,22,1>, <"Hamburg","Stuttgart",1,25,1>, <"Hamburg","Muenchen",1,29,1>, <"Hamburg","Nuernberg",1,18,1>, <"Hamburg","Berlin",1,11,1>, <"Hamburg","Leipzig",1,9,1>, <"Hannover","Frankfurt",1,6,1>, <"Hannover","Koeln",1,11,1>, <"Hannover","Hamburg",1,2,1>, <"Hannover","Karlsruhe",1,12,1>, <"Hannover","Stuttgart",1,14,1>, <"Hannover","Muenchen",1,21,1>, <"Hannover","Nuernberg",1,11,1>, <"Hannover","Berlin",1,14,1>, <"Hannover","Leipzig",1,9,1>, <"Karlsruhe","Frankfurt",1,1,1>, <"Karlsruhe","Koeln",1,5,1>, <"Karlsruhe","Hamburg",1,22,1>, <"Karlsruhe","Hannover",1,12,1>, <"Karlsruhe","Stuttgart",1,1,1>, <"Karlsruhe","Muenchen",1,10,1>, <"Karlsruhe","Nuernberg",1,8,1>, <"Karlsruhe","Berlin",1,35,1>, <"Karlsruhe","Leipzig",1,21,1>, <"Stuttgart","Frankfurt",1,3,1>, <"Stuttgart","Koeln",1,11,1>, <"Stuttgart","Hamburg",1,25,1>, <"Stuttgart","Hannover",1,14,1>, <"Stuttgart","Karlsruhe",1,1,1>, <"Stuttgart","Muenchen",1,5,1>, <"Stuttgart","Nuernberg",1,4,1>, <"Stuttgart","Berlin",1,31,1>, <"Stuttgart","Leipzig",1,17,1>, <"Muenchen","Frankfurt",1,13,1>, <"Muenchen","Koeln",1,29,1>, <"Muenchen","Hamburg",1,29,1>, <"Muenchen","Hannover",1,21,1>, <"Muenchen","Karlsruhe",1,10,1>, <"Muenchen","Stuttgart",1,5,1>, <"Muenchen","Nuernberg",1,2,1>, <"Muenchen","Berlin",1,21,1>, <"Muenchen","Leipzig",1,11,1>, <"Nuernberg","Frankfurt",1,8,1>, <"Nuernberg","Koeln",1,22,1>, <"Nuernberg","Hamburg",1,18,1>, <"Nuernberg","Hannover",1,11,1>, <"Nuernberg","Karlsruhe",1,8,1>, <"Nuernberg","Stuttgart",1,4,1>, <"Nuernberg","Muenchen",1,2,1>, <"Nuernberg","Berlin",1,14,1>, <"Nuernberg","Leipzig",1,5,1>, <"Berlin","Frankfurt",1,28,1>, <"Berlin","Koeln",1,47,1>, <"Berlin","Hamburg",1,11,1>, <"Berlin","Hannover",1,14,1>, <"Berlin","Karlsruhe",1,35,1>, <"Berlin","Stuttgart",1,31,1>, <"Berlin","Muenchen",1,21,1>, <"Berlin","Nuernberg",1,14,1>, <"Berlin","Leipzig",1,2,1>, <"Leipzig","Frankfurt",1,16,1>, <"Leipzig","Koeln",1,32,1>, <"Leipzig","Hamburg",1,9,1>, <"Leipzig","Hannover",1,9,1>, <"Leipzig","Karlsruhe",1,21,1>, <"Leipzig","Stuttgart",1,17,1>, <"Leipzig","Muenchen",1,11,1>, <"Leipzig","Nuernberg",1,5,1>, <"Leipzig","Berlin",1,2,1>};
Demands = {<"Frankfurt","Koeln",10>, <"Frankfurt","Hamburg",20>, <"Frankfurt","Hannover",30>, <"Frankfurt","Karlsruhe",40>, <"Frankfurt","Stuttgart",50>, <"Frankfurt","Muenchen",60>, <"Frankfurt","Nuernberg",70>, <"Frankfurt","Berlin",80>, <"Frankfurt","Leipzig",90>, <"Koeln","Frankfurt",10>, <"Koeln","Hamburg",10>, <"Koeln","Hannover",20>, <"Koeln","Karlsruhe",30>, <"Koeln","Stuttgart",40>, <"Koeln","Muenchen",50>, <"Koeln","Nuernberg",60>, <"Koeln","Berlin",70>, <"Koeln","Leipzig",80>, <"Hamburg","Frankfurt",20>, <"Hamburg","Koeln",10>, <"Hamburg","Hannover",10>, <"Hamburg","Karlsruhe",20>, <"Hamburg","Stuttgart",30>, <"Hamburg","Muenchen",40>, <"Hamburg","Nuernberg",50>, <"Hamburg","Berlin",60>, <"Hamburg","Leipzig",70>, <"Hannover","Frankfurt",30>, <"Hannover","Koeln",20>, <"Hannover","Hamburg",10>, <"Hannover","Karlsruhe",10>, <"Hannover","Stuttgart",20>, <"Hannover","Muenchen",30>, <"Hannover","Nuernberg",40>, <"Hannover","Berlin",50>, <"Hannover","Leipzig",60>, <"Karlsruhe","Frankfurt",40>, <"Karlsruhe","Koeln",30>, <"Karlsruhe","Hamburg",20>, <"Karlsruhe","Hannover",10>, <"Karlsruhe","Stuttgart",10>, <"Karlsruhe","Muenchen",20>, <"Karlsruhe","Nuernberg",30>, <"Karlsruhe","Berlin",40>, <"Karlsruhe","Leipzig",50>, <"Stuttgart","Frankfurt",50>, <"Stuttgart","Koeln",40>, <"Stuttgart","Hamburg",30>, <"Stuttgart","Hannover",20>, <"Stuttgart","Karlsruhe",10>, <"Stuttgart","Muenchen",10>, <"Stuttgart","Nuernberg",20>, <"Stuttgart","Berlin",30>, <"Stuttgart","Leipzig",40>, <"Muenchen","Frankfurt",60>, <"Muenchen","Koeln",50>, <"Muenchen","Hamburg",40>, <"Muenchen","Hannover",30>, <"Muenchen","Karlsruhe",20>, <"Muenchen","Stuttgart",10>, <"Muenchen","Nuernberg",10>, <"Muenchen","Berlin",20>, <"Muenchen","Leipzig",30>, <"Nuernberg","Frankfurt",70>, <"Nuernberg","Koeln",60>, <"Nuernberg","Hamburg",50>, <"Nuernberg","Hannover",40>, <"Nuernberg","Karlsruhe",30>, <"Nuernberg","Stuttgart",20>, <"Nuernberg","Muenchen",10>, <"Nuernberg","Berlin",10>, <"Nuernberg","Leipzig",20>, <"Berlin","Frankfurt",80>, <"Berlin","Koeln",70>, <"Berlin","Hamburg",60>, <"Berlin","Hannover",50>, <"Berlin","Karlsruhe",40>, <"Berlin","Stuttgart",30>, <"Berlin","Muenchen",20>, <"Berlin","Nuernberg",10>, <"Berlin","Leipzig",10>, <"Leipzig","Frankfurt",90>, <"Leipzig","Koeln",80>, <"Leipzig","Hamburg",70>, <"Leipzig","Hannover",60>, <"Leipzig","Karlsruhe",50>, <"Leipzig","Stuttgart",40>, <"Leipzig","Muenchen",30>, <"Leipzig","Nuernberg",20>, <"Leipzig","Berlin",10>};
